Minimize
 obj: - x1 - x2 - x3 + xy 
Subject To
 c1:  x1  = 0
 c2:  x2  = 0
 c3:  x3  = 0
 c4:  x1  +5 e_0_1 -13 e_0_13 +2 e_1_2 -8 e_13_17 -8 e_2_3 +0 e_3_4 +4 e_4_5 +13 e_4_14 +7 e_5_6 -2 e_14_21 -5 e_6_7 +15 e_7_8 -4 e_8_9 +15 e_8_15 +2 e_9_10 -8 e_15_25 +5 e_10_11 +10 e_11_12 -4 e_12_16 -17 e_16_29 +8 e_17_18 -5 e_21_20 +13 e_21_22 -4 e_25_24 +0 e_25_26 -6 e_29_28 +12 e_18_19 +6 e_19_20 -5 e_19_30 -1 e_30_33 +14 e_22_23 +1 e_23_24 +16 e_23_31 +12 e_31_37 -8 e_26_27 -16 e_27_28 -4 e_27_32 +0 e_32_41 +7 e_33_34 +11 e_37_36 +3 e_37_38 -1 e_41_40 -3 e_34_35 +6 e_35_36 +18 e_38_39 +9 e_39_40 = 0
 c5:  x2  -8 e_0_1 +1 e_0_13 +12 e_1_2 +2 e_13_17 +7 e_2_3 -17 e_3_4 +9 e_4_5 +0 e_4_14 +19 e_5_6 -7 e_14_21 +1 e_6_7 +6 e_7_8 -10 e_8_9 +18 e_8_15 +16 e_9_10 -7 e_15_25 -23 e_10_11 +10 e_11_12 -2 e_12_16 -3 e_16_29 -6 e_17_18 -6 e_21_20 -12 e_21_22 -8 e_25_24 +7 e_25_26 +8 e_29_28 -9 e_18_19 -1 e_19_20 -8 e_19_30 +0 e_30_33 -3 e_22_23 -27 e_23_24 +15 e_23_31 -15 e_31_37 +7 e_26_27 +5 e_27_28 +3 e_27_32 -6 e_32_41 -9 e_33_34 +1 e_37_36 +16 e_37_38 -11 e_41_40 +10 e_34_35 +9 e_35_36 -2 e_38_39 +11 e_39_40 = 0
 c6:  x3  +12 e_0_1 +22 e_0_13 +14 e_1_2 +15 e_13_17 +9 e_2_3 +1 e_3_4 +15 e_4_5 -2 e_4_14 +3 e_5_6 -16 e_14_21 -3 e_6_7 +15 e_7_8 +19 e_8_9 -2 e_8_15 -2 e_9_10 -1 e_15_25 -29 e_10_11 -7 e_11_12 +0 e_12_16 +4 e_16_29 -10 e_17_18 -16 e_21_20 -2 e_21_22 +15 e_25_24 -3 e_25_26 -1 e_29_28 +12 e_18_19 +0 e_19_20 -10 e_19_30 +13 e_30_33 -1 e_22_23 +5 e_23_24 -10 e_23_31 +3 e_31_37 +2 e_26_27 +1 e_27_28 -11 e_27_32 -8 e_32_41 -6 e_33_34 +16 e_37_36 +12 e_37_38 +4 e_41_40 +0 e_34_35 -25 e_35_36 -5 e_38_39 -13 e_39_40 = 0
 L1_0_1:   e_0_1 + n_0 + n_1 <= 2
 L1_0_13:   e_0_13 + n_0 + n_13 <= 2
 L1_1_2:   e_1_2 + n_1 + n_2 <= 2
 L1_13_17:   e_13_17 + n_13 + n_17 <= 2
 L1_2_3:   e_2_3 + n_2 + n_3 <= 2
 L1_3_4:   e_3_4 + n_3 + n_4 <= 2
 L1_4_5:   e_4_5 + n_4 + n_5 <= 2
 L1_4_14:   e_4_14 + n_4 + n_14 <= 2
 L1_5_6:   e_5_6 + n_5 + n_6 <= 2
 L1_14_21:   e_14_21 + n_14 + n_21 <= 2
 L1_6_7:   e_6_7 + n_6 + n_7 <= 2
 L1_7_8:   e_7_8 + n_7 + n_8 <= 2
 L1_8_9:   e_8_9 + n_8 + n_9 <= 2
 L1_8_15:   e_8_15 + n_8 + n_15 <= 2
 L1_9_10:   e_9_10 + n_9 + n_10 <= 2
 L1_15_25:   e_15_25 + n_15 + n_25 <= 2
 L1_10_11:   e_10_11 + n_10 + n_11 <= 2
 L1_11_12:   e_11_12 + n_11 + n_12 <= 2
 L1_12_16:   e_12_16 + n_12 + n_16 <= 2
 L1_16_29:   e_16_29 + n_16 + n_29 <= 2
 L1_17_18:   e_17_18 + n_17 + n_18 <= 2
 L1_21_20:   e_21_20 + n_21 + n_20 <= 2
 L1_21_22:   e_21_22 + n_21 + n_22 <= 2
 L1_25_24:   e_25_24 + n_25 + n_24 <= 2
 L1_25_26:   e_25_26 + n_25 + n_26 <= 2
 L1_29_28:   e_29_28 + n_29 + n_28 <= 2
 L1_18_19:   e_18_19 + n_18 + n_19 <= 2
 L1_19_20:   e_19_20 + n_19 + n_20 <= 2
 L1_19_30:   e_19_30 + n_19 + n_30 <= 2
 L1_30_33:   e_30_33 + n_30 + n_33 <= 2
 L1_22_23:   e_22_23 + n_22 + n_23 <= 2
 L1_23_24:   e_23_24 + n_23 + n_24 <= 2
 L1_23_31:   e_23_31 + n_23 + n_31 <= 2
 L1_31_37:   e_31_37 + n_31 + n_37 <= 2
 L1_26_27:   e_26_27 + n_26 + n_27 <= 2
 L1_27_28:   e_27_28 + n_27 + n_28 <= 2
 L1_27_32:   e_27_32 + n_27 + n_32 <= 2
 L1_32_41:   e_32_41 + n_32 + n_41 <= 2
 L1_33_34:   e_33_34 + n_33 + n_34 <= 2
 L1_37_36:   e_37_36 + n_37 + n_36 <= 2
 L1_37_38:   e_37_38 + n_37 + n_38 <= 2
 L1_41_40:   e_41_40 + n_41 + n_40 <= 2
 L1_34_35:   e_34_35 + n_34 + n_35 <= 2
 L1_35_36:   e_35_36 + n_35 + n_36 <= 2
 L1_38_39:   e_38_39 + n_38 + n_39 <= 2
 L1_39_40:   e_39_40 + n_39 + n_40 <= 2
 L2_0_1:   e_0_1 - n_0 - n_1 <= 0
 L2_0_13:   e_0_13 - n_0 - n_13 <= 0
 L2_1_2:   e_1_2 - n_1 - n_2 <= 0
 L2_13_17:   e_13_17 - n_13 - n_17 <= 0
 L2_2_3:   e_2_3 - n_2 - n_3 <= 0
 L2_3_4:   e_3_4 - n_3 - n_4 <= 0
 L2_4_5:   e_4_5 - n_4 - n_5 <= 0
 L2_4_14:   e_4_14 - n_4 - n_14 <= 0
 L2_5_6:   e_5_6 - n_5 - n_6 <= 0
 L2_14_21:   e_14_21 - n_14 - n_21 <= 0
 L2_6_7:   e_6_7 - n_6 - n_7 <= 0
 L2_7_8:   e_7_8 - n_7 - n_8 <= 0
 L2_8_9:   e_8_9 - n_8 - n_9 <= 0
 L2_8_15:   e_8_15 - n_8 - n_15 <= 0
 L2_9_10:   e_9_10 - n_9 - n_10 <= 0
 L2_15_25:   e_15_25 - n_15 - n_25 <= 0
 L2_10_11:   e_10_11 - n_10 - n_11 <= 0
 L2_11_12:   e_11_12 - n_11 - n_12 <= 0
 L2_12_16:   e_12_16 - n_12 - n_16 <= 0
 L2_16_29:   e_16_29 - n_16 - n_29 <= 0
 L2_17_18:   e_17_18 - n_17 - n_18 <= 0
 L2_21_20:   e_21_20 - n_21 - n_20 <= 0
 L2_21_22:   e_21_22 - n_21 - n_22 <= 0
 L2_25_24:   e_25_24 - n_25 - n_24 <= 0
 L2_25_26:   e_25_26 - n_25 - n_26 <= 0
 L2_29_28:   e_29_28 - n_29 - n_28 <= 0
 L2_18_19:   e_18_19 - n_18 - n_19 <= 0
 L2_19_20:   e_19_20 - n_19 - n_20 <= 0
 L2_19_30:   e_19_30 - n_19 - n_30 <= 0
 L2_30_33:   e_30_33 - n_30 - n_33 <= 0
 L2_22_23:   e_22_23 - n_22 - n_23 <= 0
 L2_23_24:   e_23_24 - n_23 - n_24 <= 0
 L2_23_31:   e_23_31 - n_23 - n_31 <= 0
 L2_31_37:   e_31_37 - n_31 - n_37 <= 0
 L2_26_27:   e_26_27 - n_26 - n_27 <= 0
 L2_27_28:   e_27_28 - n_27 - n_28 <= 0
 L2_27_32:   e_27_32 - n_27 - n_32 <= 0
 L2_32_41:   e_32_41 - n_32 - n_41 <= 0
 L2_33_34:   e_33_34 - n_33 - n_34 <= 0
 L2_37_36:   e_37_36 - n_37 - n_36 <= 0
 L2_37_38:   e_37_38 - n_37 - n_38 <= 0
 L2_41_40:   e_41_40 - n_41 - n_40 <= 0
 L2_34_35:   e_34_35 - n_34 - n_35 <= 0
 L2_35_36:   e_35_36 - n_35 - n_36 <= 0
 L2_38_39:   e_38_39 - n_38 - n_39 <= 0
 L2_39_40:   e_39_40 - n_39 - n_40 <= 0
 G1_0_1:   e_0_1 + n_0 - n_1 >= 0
 G1_0_13:   e_0_13 + n_0 - n_13 >= 0
 G1_1_2:   e_1_2 + n_1 - n_2 >= 0
 G1_13_17:   e_13_17 + n_13 - n_17 >= 0
 G1_2_3:   e_2_3 + n_2 - n_3 >= 0
 G1_3_4:   e_3_4 + n_3 - n_4 >= 0
 G1_4_5:   e_4_5 + n_4 - n_5 >= 0
 G1_4_14:   e_4_14 + n_4 - n_14 >= 0
 G1_5_6:   e_5_6 + n_5 - n_6 >= 0
 G1_14_21:   e_14_21 + n_14 - n_21 >= 0
 G1_6_7:   e_6_7 + n_6 - n_7 >= 0
 G1_7_8:   e_7_8 + n_7 - n_8 >= 0
 G1_8_9:   e_8_9 + n_8 - n_9 >= 0
 G1_8_15:   e_8_15 + n_8 - n_15 >= 0
 G1_9_10:   e_9_10 + n_9 - n_10 >= 0
 G1_15_25:   e_15_25 + n_15 - n_25 >= 0
 G1_10_11:   e_10_11 + n_10 - n_11 >= 0
 G1_11_12:   e_11_12 + n_11 - n_12 >= 0
 G1_12_16:   e_12_16 + n_12 - n_16 >= 0
 G1_16_29:   e_16_29 + n_16 - n_29 >= 0
 G1_17_18:   e_17_18 + n_17 - n_18 >= 0
 G1_21_20:   e_21_20 + n_21 - n_20 >= 0
 G1_21_22:   e_21_22 + n_21 - n_22 >= 0
 G1_25_24:   e_25_24 + n_25 - n_24 >= 0
 G1_25_26:   e_25_26 + n_25 - n_26 >= 0
 G1_29_28:   e_29_28 + n_29 - n_28 >= 0
 G1_18_19:   e_18_19 + n_18 - n_19 >= 0
 G1_19_20:   e_19_20 + n_19 - n_20 >= 0
 G1_19_30:   e_19_30 + n_19 - n_30 >= 0
 G1_30_33:   e_30_33 + n_30 - n_33 >= 0
 G1_22_23:   e_22_23 + n_22 - n_23 >= 0
 G1_23_24:   e_23_24 + n_23 - n_24 >= 0
 G1_23_31:   e_23_31 + n_23 - n_31 >= 0
 G1_31_37:   e_31_37 + n_31 - n_37 >= 0
 G1_26_27:   e_26_27 + n_26 - n_27 >= 0
 G1_27_28:   e_27_28 + n_27 - n_28 >= 0
 G1_27_32:   e_27_32 + n_27 - n_32 >= 0
 G1_32_41:   e_32_41 + n_32 - n_41 >= 0
 G1_33_34:   e_33_34 + n_33 - n_34 >= 0
 G1_37_36:   e_37_36 + n_37 - n_36 >= 0
 G1_37_38:   e_37_38 + n_37 - n_38 >= 0
 G1_41_40:   e_41_40 + n_41 - n_40 >= 0
 G1_34_35:   e_34_35 + n_34 - n_35 >= 0
 G1_35_36:   e_35_36 + n_35 - n_36 >= 0
 G1_38_39:   e_38_39 + n_38 - n_39 >= 0
 G1_39_40:   e_39_40 + n_39 - n_40 >= 0
 G2_0_1:   e_0_1 - n_0 + n_1 >= 0
 G2_0_13:   e_0_13 - n_0 + n_13 >= 0
 G2_1_2:   e_1_2 - n_1 + n_2 >= 0
 G2_13_17:   e_13_17 - n_13 + n_17 >= 0
 G2_2_3:   e_2_3 - n_2 + n_3 >= 0
 G2_3_4:   e_3_4 - n_3 + n_4 >= 0
 G2_4_5:   e_4_5 - n_4 + n_5 >= 0
 G2_4_14:   e_4_14 - n_4 + n_14 >= 0
 G2_5_6:   e_5_6 - n_5 + n_6 >= 0
 G2_14_21:   e_14_21 - n_14 + n_21 >= 0
 G2_6_7:   e_6_7 - n_6 + n_7 >= 0
 G2_7_8:   e_7_8 - n_7 + n_8 >= 0
 G2_8_9:   e_8_9 - n_8 + n_9 >= 0
 G2_8_15:   e_8_15 - n_8 + n_15 >= 0
 G2_9_10:   e_9_10 - n_9 + n_10 >= 0
 G2_15_25:   e_15_25 - n_15 + n_25 >= 0
 G2_10_11:   e_10_11 - n_10 + n_11 >= 0
 G2_11_12:   e_11_12 - n_11 + n_12 >= 0
 G2_12_16:   e_12_16 - n_12 + n_16 >= 0
 G2_16_29:   e_16_29 - n_16 + n_29 >= 0
 G2_17_18:   e_17_18 - n_17 + n_18 >= 0
 G2_21_20:   e_21_20 - n_21 + n_20 >= 0
 G2_21_22:   e_21_22 - n_21 + n_22 >= 0
 G2_25_24:   e_25_24 - n_25 + n_24 >= 0
 G2_25_26:   e_25_26 - n_25 + n_26 >= 0
 G2_29_28:   e_29_28 - n_29 + n_28 >= 0
 G2_18_19:   e_18_19 - n_18 + n_19 >= 0
 G2_19_20:   e_19_20 - n_19 + n_20 >= 0
 G2_19_30:   e_19_30 - n_19 + n_30 >= 0
 G2_30_33:   e_30_33 - n_30 + n_33 >= 0
 G2_22_23:   e_22_23 - n_22 + n_23 >= 0
 G2_23_24:   e_23_24 - n_23 + n_24 >= 0
 G2_23_31:   e_23_31 - n_23 + n_31 >= 0
 G2_31_37:   e_31_37 - n_31 + n_37 >= 0
 G2_26_27:   e_26_27 - n_26 + n_27 >= 0
 G2_27_28:   e_27_28 - n_27 + n_28 >= 0
 G2_27_32:   e_27_32 - n_27 + n_32 >= 0
 G2_32_41:   e_32_41 - n_32 + n_41 >= 0
 G2_33_34:   e_33_34 - n_33 + n_34 >= 0
 G2_37_36:   e_37_36 - n_37 + n_36 >= 0
 G2_37_38:   e_37_38 - n_37 + n_38 >= 0
 G2_41_40:   e_41_40 - n_41 + n_40 >= 0
 G2_34_35:   e_34_35 - n_34 + n_35 >= 0
 G2_35_36:   e_35_36 - n_35 + n_36 >= 0
 G2_38_39:   e_38_39 - n_38 + n_39 >= 0
 G2_39_40:   e_39_40 - n_39 + n_40 >= 0
Bounds
       x1 Free
       x2 Free
       x3 Free
 0 <= e_0_1 <= 1
 0 <= e_0_13 <= 1
 0 <= e_1_2 <= 1
 0 <= e_13_17 <= 1
 0 <= e_2_3 <= 1
 0 <= e_3_4 <= 1
 0 <= e_4_5 <= 1
 0 <= e_4_14 <= 1
 0 <= e_5_6 <= 1
 0 <= e_14_21 <= 1
 0 <= e_6_7 <= 1
 0 <= e_7_8 <= 1
 0 <= e_8_9 <= 1
 0 <= e_8_15 <= 1
 0 <= e_9_10 <= 1
 0 <= e_15_25 <= 1
 0 <= e_10_11 <= 1
 0 <= e_11_12 <= 1
 0 <= e_12_16 <= 1
 0 <= e_16_29 <= 1
 0 <= e_17_18 <= 1
 0 <= e_21_20 <= 1
 0 <= e_21_22 <= 1
 0 <= e_25_24 <= 1
 0 <= e_25_26 <= 1
 0 <= e_29_28 <= 1
 0 <= e_18_19 <= 1
 0 <= e_19_20 <= 1
 0 <= e_19_30 <= 1
 0 <= e_30_33 <= 1
 0 <= e_22_23 <= 1
 0 <= e_23_24 <= 1
 0 <= e_23_31 <= 1
 0 <= e_31_37 <= 1
 0 <= e_26_27 <= 1
 0 <= e_27_28 <= 1
 0 <= e_27_32 <= 1
 0 <= e_32_41 <= 1
 0 <= e_33_34 <= 1
 0 <= e_37_36 <= 1
 0 <= e_37_38 <= 1
 0 <= e_41_40 <= 1
 0 <= e_34_35 <= 1
 0 <= e_35_36 <= 1
 0 <= e_38_39 <= 1
 0 <= e_39_40 <= 1
 0 <= n_0 <= 1
 0 <= n_1 <= 1
 0 <= n_13 <= 1
 0 <= n_2 <= 1
 0 <= n_3 <= 1
 0 <= n_4 <= 1
 0 <= n_5 <= 1
 0 <= n_14 <= 1
 0 <= n_6 <= 1
 0 <= n_7 <= 1
 0 <= n_8 <= 1
 0 <= n_9 <= 1
 0 <= n_15 <= 1
 0 <= n_10 <= 1
 0 <= n_11 <= 1
 0 <= n_12 <= 1
 0 <= n_16 <= 1
 0 <= n_17 <= 1
 0 <= n_21 <= 1
 0 <= n_25 <= 1
 0 <= n_29 <= 1
 0 <= n_18 <= 1
 0 <= n_19 <= 1
 0 <= n_20 <= 1
 0 <= n_30 <= 1
 0 <= n_22 <= 1
 0 <= n_23 <= 1
 0 <= n_24 <= 1
 0 <= n_31 <= 1
 0 <= n_26 <= 1
 0 <= n_27 <= 1
 0 <= n_28 <= 1
 0 <= n_32 <= 1
 0 <= n_33 <= 1
 0 <= n_37 <= 1
 0 <= n_41 <= 1
 0 <= n_34 <= 1
 0 <= n_35 <= 1
 0 <= n_36 <= 1
 0 <= n_38 <= 1
 0 <= n_39 <= 1
 0 <= n_40 <= 1
     xy = 0
Binaries
 e_0_1  e_0_13  e_1_2  e_13_17  e_2_3  e_3_4  e_4_5  e_4_14  e_5_6  e_14_21  e_6_7  e_7_8  e_8_9  e_8_15  e_9_10  e_15_25  e_10_11  e_11_12  e_12_16  e_16_29  e_17_18  e_21_20  e_21_22  e_25_24  e_25_26  e_29_28  e_18_19  e_19_20  e_19_30  e_30_33  e_22_23  e_23_24  e_23_31  e_31_37  e_26_27  e_27_28  e_27_32  e_32_41  e_33_34  e_37_36  e_37_38  e_41_40  e_34_35  e_35_36  e_38_39  e_39_40  n_0  n_1  n_13  n_2  n_3  n_4  n_5  n_14  n_6  n_7  n_8  n_9  n_15  n_10  n_11  n_12  n_16  n_17  n_21  n_25  n_29  n_18  n_19  n_20  n_30  n_22  n_23  n_24  n_31  n_26  n_27  n_28  n_32  n_33  n_37  n_41  n_34  n_35  n_36  n_38  n_39  n_40 
End